data;
param n:=100;
param w:=1 443 2 -147 3 -35 4 -489 5 218 6 -252 7 -391 8 -58 9 26 10 -261 11 -338 12 459 13 459 14 150 15 -491 16 381 17 -92 18 18 19 -228 20 297 21 200 22 296 23 -157 24 115 25 479 26 56 27 -9 28 284 29 154 30 119 31 -401 32 -277 33 -159 34 -185 35 140 36 -323 37 -71 38 -287 39 -433 40 434 41 11 42 405 43 -282 44 220 45 -352 46 238 47 328 48 431 49 -164 50 -376 51 141 52 -361 53 2 54 387 55 39 56 -279 57 25 58 214 59 372 60 383 61 -474 62 -367 63 -460 64 391 65 -113 66 172 67 -20 68 149 69 131 70 383 71 75 72 397 73 -185 74 201 75 341 76 -495 77 -128 78 96 79 276 80 -411 81 441 82 412 83 47 84 143 85 -130 86 -63 87 -1 88 -275 89 -302 90 -469 91 -425 92 -454 93 371 94 188 95 -19 96 -93 97 -328 98 -511 99 375 100 108;
